c CNF file generated from BLIF2CNF script.
c Original BLIF file was blif/risc.blif
p cnf 127 676
-1 -9 0
-2 -9 0
3 -9 0
4 -9 0
5 -9 0
9 1 2 -3 -4 -5  0
-9 8 0
-1 -10 0
2 -10 0
-3 -10 0
-4 -10 0
-5 -10 0
-6 -10 0
10 1 -2 3 4 5 6  0
-10 8 0
-1 -11 0
2 -11 0
-3 -11 0
-4 -11 0
-5 -11 0
6 -11 0
-7 -11 0
11 1 -2 3 4 5 -6 7  0
-11 8 0
-8 9 10 11  0
-1 -13 0
-2 -13 0
3 -13 0
4 -13 0
-5 -13 0
6 -13 0
13 1 2 -3 -4 5 -6  0
-13 12 0
-12 13  0
-1 -15 0
2 -15 0
3 -15 0
4 -15 0
15 1 -2 -3 -4  0
-15 14 0
1 -16 0
2 -16 0
-3 -16 0
-4 -16 0
16 -1 -2 3 4  0
-16 14 0
-1 -17 0
2 -17 0
3 -17 0
-4 -17 0
5 -17 0
17 1 -2 -3 4 -5  0
-17 14 0
-1 -18 0
2 -18 0
3 -18 0
-4 -18 0
-5 -18 0
18 1 -2 -3 4 5  0
-18 14 0
-1 -19 0
-2 -19 0
3 -19 0
4 -19 0
-5 -19 0
6 -19 0
19 1 2 -3 -4 5 -6  0
-19 14 0
-14 15 16 17 18 19  0
1 -22 0
2 -22 0
-3 -22 0
-4 -22 0
22 -1 -2 3 4  0
-22 21 0
1 -23 0
-2 -23 0
-3 -23 0
4 -23 0
-5 -23 0
6 -23 0
23 -1 2 3 -4 5 -6  0
-23 21 0
1 -24 0
-2 -24 0
-3 -24 0
4 -24 0
-5 -24 0
-6 -24 0
24 -1 2 3 -4 5 6  0
-24 21 0
1 -25 0
-2 -25 0
-3 -25 0
-4 -25 0
-5 -25 0
6 -25 0
20 -25 0
25 -1 2 3 4 5 -6 -20  0
-25 21 0
1 -26 0
-2 -26 0
-3 -26 0
-4 -26 0
-5 -26 0
-6 -26 0
20 -26 0
26 -1 2 3 4 5 6 -20  0
-26 21 0
-21 22 23 24 25 26  0
-1 -28 0
-2 -28 0
-3 -28 0
4 -28 0
28 1 2 3 -4  0
-28 27 0
1 -29 0
-2 -29 0
3 -29 0
4 -29 0
5 -29 0
29 -1 2 -3 -4 -5  0
-29 27 0
-1 -30 0
-2 -30 0
-3 -30 0
-4 -30 0
5 -30 0
30 1 2 3 4 -5  0
-30 27 0
1 -31 0
-2 -31 0
3 -31 0
4 -31 0
-5 -31 0
31 -1 2 -3 -4 5  0
-31 27 0
-1 -32 0
-2 -32 0
-3 -32 0
-4 -32 0
-5 -32 0
32 1 2 3 4 5  0
-32 27 0
1 -33 0
-2 -33 0
3 -33 0
-4 -33 0
5 -33 0
6 -33 0
33 -1 2 -3 4 -5 -6  0
-33 27 0
1 -34 0
-2 -34 0
3 -34 0
-4 -34 0
-5 -34 0
6 -34 0
34 -1 2 -3 4 5 -6  0
-34 27 0
1 -35 0
-2 -35 0
3 -35 0
-4 -35 0
5 -35 0
-6 -35 0
35 -1 2 -3 4 -5 6  0
-35 27 0
1 -36 0
-2 -36 0
3 -36 0
-4 -36 0
-5 -36 0
-6 -36 0
36 -1 2 -3 4 5 6  0
-36 27 0
-27 28 29 30 31 32 33 34 35 36  0
-1 -38 0
-2 -38 0
3 -38 0
4 -38 0
5 -38 0
38 1 2 -3 -4 -5  0
-38 37 0
-1 -39 0
-2 -39 0
3 -39 0
4 -39 0
-5 -39 0
6 -39 0
39 1 2 -3 -4 5 -6  0
-39 37 0
-1 -40 0
-2 -40 0
3 -40 0
4 -40 0
-5 -40 0
-6 -40 0
40 1 2 -3 -4 5 6  0
-40 37 0
-37 38 39 40  0
-1 -42 0
-2 -42 0
3 -42 0
-4 -42 0
6 -42 0
42 1 2 -3 4 -6  0
-42 41 0
-1 -43 0
-2 -43 0
3 -43 0
-4 -43 0
-6 -43 0
43 1 2 -3 4 6  0
-43 41 0
-41 42 43  0
-1 -45 0
-2 -45 0
3 -45 0
4 -45 0
5 -45 0
45 1 2 -3 -4 -5  0
-45 44 0
-1 -46 0
-2 -46 0
3 -46 0
-4 -46 0
-6 -46 0
46 1 2 -3 4 6  0
-46 44 0
-1 -47 0
-2 -47 0
3 -47 0
4 -47 0
-5 -47 0
-6 -47 0
47 1 2 -3 -4 5 6  0
-47 44 0
-44 45 46 47  0
-1 -49 0
2 -49 0
3 -49 0
4 -49 0
49 1 -2 -3 -4  0
-49 48 0
-1 -50 0
2 -50 0
3 -50 0
-4 -50 0
5 -50 0
50 1 -2 -3 4 -5  0
-50 48 0
-1 -51 0
2 -51 0
3 -51 0
-4 -51 0
-5 -51 0
51 1 -2 -3 4 5  0
-51 48 0
-48 49 50 51  0
-1 -53 0
2 -53 0
-3 -53 0
-4 -53 0
-5 -53 0
-6 -53 0
53 1 -2 3 4 5 6  0
-53 52 0
-1 -54 0
2 -54 0
-3 -54 0
-4 -54 0
-5 -54 0
6 -54 0
-7 -54 0
54 1 -2 3 4 5 -6 7  0
-54 52 0
-52 53 54  0
-1 -56 0
2 -56 0
-3 -56 0
-4 -56 0
5 -56 0
56 1 -2 3 4 -5  0
-56 55 0
-1 -57 0
2 -57 0
-3 -57 0
-4 -57 0
-5 -57 0
-6 -57 0
57 1 -2 3 4 5 6  0
-57 55 0
-1 -58 0
2 -58 0
-3 -58 0
-4 -58 0
-5 -58 0
6 -58 0
7 -58 0
58 1 -2 3 4 5 -6 -7  0
-58 55 0
-1 -59 0
2 -59 0
-3 -59 0
-4 -59 0
-5 -59 0
6 -59 0
-7 -59 0
59 1 -2 3 4 5 -6 7  0
-59 55 0
-55 56 57 58 59  0
-1 -61 0
2 -61 0
-3 -61 0
-4 -61 0
-5 -61 0
-6 -61 0
61 1 -2 3 4 5 6  0
-61 60 0
-1 -62 0
2 -62 0
-3 -62 0
-4 -62 0
-5 -62 0
6 -62 0
7 -62 0
62 1 -2 3 4 5 -6 -7  0
-62 60 0
-60 61 62  0
-1 -64 0
2 -64 0
-3 -64 0
-4 -64 0
5 -64 0
64 1 -2 3 4 -5  0
-64 63 0
-1 -65 0
2 -65 0
-3 -65 0
-4 -65 0
-5 -65 0
6 -65 0
-7 -65 0
65 1 -2 3 4 5 -6 7  0
-65 63 0
-63 64 65  0
-1 -67 0
2 -67 0
-3 -67 0
4 -67 0
67 1 -2 3 -4  0
-67 66 0
-1 -68 0
2 -68 0
-3 -68 0
-4 -68 0
5 -68 0
68 1 -2 3 4 -5  0
-68 66 0
-1 -69 0
2 -69 0
-3 -69 0
-4 -69 0
-5 -69 0
-6 -69 0
69 1 -2 3 4 5 6  0
-69 66 0
-1 -70 0
2 -70 0
-3 -70 0
-4 -70 0
-5 -70 0
6 -70 0
7 -70 0
70 1 -2 3 4 5 -6 -7  0
-70 66 0
-1 -71 0
2 -71 0
-3 -71 0
-4 -71 0
-5 -71 0
6 -71 0
-7 -71 0
71 1 -2 3 4 5 -6 7  0
-71 66 0
-66 67 68 69 70 71  0
-1 -73 0
-2 -73 0
-3 -73 0
4 -73 0
73 1 2 3 -4  0
-73 72 0
-1 -74 0
-2 -74 0
-3 -74 0
-4 -74 0
5 -74 0
74 1 2 3 4 -5  0
-74 72 0
-1 -75 0
-2 -75 0
-3 -75 0
-4 -75 0
-5 -75 0
75 1 2 3 4 5  0
-75 72 0
-72 73 74 75  0
1 -77 0
77 -1  0
-77 76 0
2 -78 0
78 -2  0
-78 76 0
3 -79 0
79 -3  0
-79 76 0
-76 77 78 79  0
1 -81 0
-2 -81 0
3 -81 0
-4 -81 0
5 -81 0
6 -81 0
81 -1 2 -3 4 -5 -6  0
-81 80 0
1 -82 0
-2 -82 0
3 -82 0
-4 -82 0
-5 -82 0
6 -82 0
82 -1 2 -3 4 5 -6  0
-82 80 0
-80 81 82  0
1 -84 0
-2 -84 0
3 -84 0
-4 -84 0
5 -84 0
-6 -84 0
84 -1 2 -3 4 -5 6  0
-84 83 0
1 -85 0
-2 -85 0
3 -85 0
-4 -85 0
-5 -85 0
-6 -85 0
85 -1 2 -3 4 5 6  0
-85 83 0
-83 84 85  0
-1 -87 0
-2 -87 0
-3 -87 0
-4 -87 0
-5 -87 0
87 1 2 3 4 5  0
-87 86 0
-86 87  0
-1 -89 0
-2 -89 0
-3 -89 0
4 -89 0
89 1 2 3 -4  0
-89 88 0
-88 89  0
1 -91 0
2 -91 0
3 -91 0
91 -1 -2 -3  0
-91 90 0
-90 91  0
1 -93 0
2 -93 0
-3 -93 0
-4 -93 0
93 -1 -2 3 4  0
-93 92 0
1 -94 0
-2 -94 0
-3 -94 0
4 -94 0
-5 -94 0
6 -94 0
94 -1 2 3 -4 5 -6  0
-94 92 0
1 -95 0
-2 -95 0
-3 -95 0
4 -95 0
-5 -95 0
-6 -95 0
95 -1 2 3 -4 5 6  0
-95 92 0
-92 93 94 95  0
1 -97 0
-2 -97 0
-3 -97 0
4 -97 0
-5 -97 0
6 -97 0
97 -1 2 3 -4 5 -6  0
-97 96 0
1 -98 0
-2 -98 0
-3 -98 0
4 -98 0
-5 -98 0
-6 -98 0
98 -1 2 3 -4 5 6  0
-98 96 0
-96 97 98  0
1 -100 0
-2 -100 0
-3 -100 0
-4 -100 0
-5 -100 0
6 -100 0
100 -1 2 3 4 5 -6  0
-100 99 0
1 -101 0
-2 -101 0
-3 -101 0
-4 -101 0
-5 -101 0
-6 -101 0
101 -1 2 3 4 5 6  0
-101 99 0
-99 100 101  0
1 -103 0
-2 -103 0
-3 -103 0
4 -103 0
-5 -103 0
6 -103 0
103 -1 2 3 -4 5 -6  0
-103 102 0
1 -104 0
-2 -104 0
-3 -104 0
-4 -104 0
-5 -104 0
6 -104 0
104 -1 2 3 4 5 -6  0
-104 102 0
-102 103 104  0
1 -106 0
2 -106 0
-3 -106 0
4 -106 0
106 -1 -2 3 -4  0
-106 105 0
1 -107 0
-2 -107 0
-3 -107 0
4 -107 0
5 -107 0
107 -1 2 3 -4 -5  0
-107 105 0
-105 106 107  0
1 -109 0
2 -109 0
3 -109 0
109 -1 -2 -3  0
-109 108 0
1 -110 0
-2 -110 0
-3 -110 0
4 -110 0
-5 -110 0
6 -110 0
110 -1 2 3 -4 5 -6  0
-110 108 0
1 -111 0
-2 -111 0
-3 -111 0
-4 -111 0
-5 -111 0
6 -111 0
111 -1 2 3 4 5 -6  0
-111 108 0
-108 109 110 111  0
-1 -113 0
2 -113 0
3 -113 0
4 -113 0
113 1 -2 -3 -4  0
-113 112 0
-1 -114 0
2 -114 0
-3 -114 0
4 -114 0
114 1 -2 3 -4  0
-114 112 0
-1 -115 0
2 -115 0
3 -115 0
-4 -115 0
5 -115 0
115 1 -2 -3 4 -5  0
-115 112 0
-1 -116 0
2 -116 0
-3 -116 0
-4 -116 0
5 -116 0
116 1 -2 3 4 -5  0
-116 112 0
-1 -117 0
2 -117 0
3 -117 0
-4 -117 0
-5 -117 0
117 1 -2 -3 4 5  0
-117 112 0
-1 -118 0
2 -118 0
-3 -118 0
-4 -118 0
-5 -118 0
-6 -118 0
118 1 -2 3 4 5 6  0
-118 112 0
-1 -119 0
2 -119 0
-3 -119 0
-4 -119 0
-5 -119 0
6 -119 0
7 -119 0
119 1 -2 3 4 5 -6 -7  0
-119 112 0
-1 -120 0
2 -120 0
-3 -120 0
-4 -120 0
-5 -120 0
6 -120 0
-7 -120 0
120 1 -2 3 4 5 -6 7  0
-120 112 0
-112 113 114 115 116 117 118 119 120  0
-1 -122 0
-2 -122 0
3 -122 0
-4 -122 0
6 -122 0
122 1 2 -3 4 -6  0
-122 121 0
-121 122  0
1 -124 0
-2 -124 0
3 -124 0
4 -124 0
-5 -124 0
124 -1 2 -3 -4 5  0
-124 123 0
-123 124  0
1 -126 0
-2 -126 0
3 -126 0
-4 -126 0
-5 -126 0
6 -126 0
126 -1 2 -3 4 5 -6  0
-126 125 0
1 -127 0
-2 -127 0
3 -127 0
-4 -127 0
-5 -127 0
-6 -127 0
127 -1 2 -3 4 5 6  0
-127 125 0
-125 126 127  0
